solving instance mcf arcs c38 3 6 sinabc3
presolving:
(round 1, fast)       250 del vars, 250 del conss, 0 add conss, 230 chg bounds, 0 chg sides, 0 chg coeffs, 0 upgd conss, 0 impls, 0 clqs
   (0.4s) symmetry computation started: requiring (bin +, int +, cont +), (fixed: bin -, int -, cont -)
   (0.5s) no symmetry present (symcode time: 0.02)
presolving (2 rounds: 2 fast, 1 medium, 1 exhaustive):
 270 deleted vars, 250 deleted constraints, 0 added constraints, 230 tightened bounds, 0 added holes, 0 changed sides, 0 changed coefficients
 0 implications, 0 cliques
presolved problem has 46460 variables (0 bin, 0 int, 0 impl, 46460 cont) and 4480 constraints
   4250 constraints of type <linear>
    230 constraints of type <nonlinear>
Presolving Time: 0.39

 time | node  | left  |LP iter|LP it/n|mem/heur|mdpt |vars |cons |rows |cuts |sepa|confs|strbr|  dualbound   | primalbound  |  gap   | compl. 
 71.3s|     1 |     0 | 69582 |     - |   264M |   0 |  47k|4480 |6320 |   0 |  0 |   0 |   0 | 1.727307e+03 |      --      |    Inf | unknown
L3108s|     1 |     0 | 69582 |     - |  subnlp|   0 |  47k|4480 |6320 |   0 |  0 |   0 |   0 | 1.727307e+03 | 2.665562e+04 |1443.19%| unknown
 3129s|     1 |     0 | 82803 |     - |   266M |   0 |  47k|4480 |6506 | 186 |  1 |   0 |   0 | 3.538072e+03 | 2.665562e+04 | 653.39%| unknown
 3129s|     1 |     0 | 82803 |     - |   266M |   0 |  47k|4480 |6506 | 186 |  1 |   0 |   0 | 3.538072e+03 | 2.665562e+04 | 653.39%| unknown
 3148s|     1 |     0 | 93398 |     - |   266M |   0 |  47k|4480 |6639 | 319 |  2 |   0 |   0 | 4.027458e+03 | 2.665562e+04 | 561.85%| unknown
 3156s|     1 |     0 | 97762 |     - |   266M |   0 |  47k|4480 |6721 | 401 |  3 |   0 |   0 | 4.126288e+03 | 2.665562e+04 | 546.00%| unknown
 3158s|     1 |     0 | 98636 |     - |   266M |   0 |  47k|4480 |6736 | 416 |  4 |   0 |   0 | 4.135544e+03 | 2.665562e+04 | 544.55%| unknown
 3158s|     1 |     0 | 98754 |     - |   266M |   0 |  47k|4480 |6741 | 421 |  5 |   0 |   0 | 4.136007e+03 | 2.665562e+04 | 544.48%| unknown
 3519s|     1 |     0 |459652 |     - |   270M |   0 |  47k|4480 |6741 | 421 |  6 |   0 |   0 | 4.136007e+03 | 2.665562e+04 | 544.48%| unknown
 3521s|     1 |     2 |459652 |     - |   275M |   0 |  47k|4480 |6741 | 421 |  7 |   0 |   0 | 4.136007e+03 | 2.665562e+04 | 544.48%| unknown

SCIP Status        : solving was interrupted [time limit reached]
Solving Time (sec) : 3600.00
Solving Nodes      : 26
Primal Bound       : +2.66556163515426e+04 (2 solutions)
Dual Bound         : +4.13650101245522e+03
Gap                : 544.40 %
primal_bound = 26655.616351542572, dual_bound = 4136.501012455216, gap = 84.48169062046155, time = 3602.51
